NAME : random_9
COMMENT : 30 random nodes
TYPE : TSP
DIMENSION : 30
EDGE_WEIGHT_TYPE : EUC_2D
NODE_COORD_SECTION
1 816 278
2 820 641
3 695 345
4 679 917
5 171 71
6 748 780
7 723 385
8 848 325
9 793 981
10 709 793
11 277 35
12 210 99
13 902 284
14 821 538
15 741 520
16 912 632
17 33 817
18 744 894
19 385 10
20 64 492
21 954 396
22 22 871
23 146 890
24 659 729
25 455 601
26 197 712
27 219 34
28 969 865
29 469 989
30 636 325
EOF